peakDumbCharging = 22200; 
Machine = anon_enum(16); 
machineSpeed = [3700,3700,3700,3700,3700,3700,3700,3700,3700,3700,3700,3700,3700,3700,3700,3700]; 
machineLoad = [3700,3700,3700,3700,3700,3700,3700,3700,3700,3700,3700,3700,3700,3700,3700,3700]; 
Car = anon_enum(35); 
demandCar = [6280,7160,6280,5880,13680,9240,13800,7800,3040,7720,7160,8840,11680,960,2920,3960,20280,5080,5160,20320,6040,3600,21920,3080,5720,160,11560,8280,920,24040,5760,33480,19880,22040,22920]; 
arrivalCar = [69,69,65,64,64,63,62,62,61,59,59,58,57,56,56,55,55,53,49,46,45,43,42,40,40,39,37,34,28,26,25,25,23,23,21]; 
departureCar = [76,72,69,67,69,69,75,65,64,63,63,63,63,58,59,60,62,57,52,53,47,45,50,43,43,40,42,38,29,38,29,39,32,60,35]; 
